0 29 162 171 237 286 297 359 415 459 
29 72 162 237 248 317 359 405 451 523 
345 436 521 612 686 776 786 798 887 932 
436 517 612 683 782 791 843 928 1026 1048 
686 700 786 1143 1238 1264 1333 1354 1403 1475 
700 784 1091 1143 1238 1286 1358 1405 1470 1476 
808 1405 1442 1503 1528 1648 1669 1787 1876 1906 
784 1442 1528 1574 1648 1680 1768 1787 1906 1942 
1528 1659 2021 2097 2148 2233 2244 2284 2373 2399 
1574 1659 1672 1768 1876 2244 2320 2367 2419 2509 
